
Gurobi 10.0.3 (linux64, gurobi_cl) logging started Thu Nov  2 11:33:57 2023

Set parameter Username
Set parameter TimeLimit to value 3600
Set parameter LogFile to value "RCPSP_9.log"
Set parameter Threads to value 32
Academic license - for non-commercial use only - expires 2024-10-30
Using license file /home/jrivera6/gurobi-licenses/v1003/compute-0-34/gurobi.lic

Gurobi Optimizer version 10.0.3 build v10.0.3rc0 (linux64)
Copyright (c) 2023, Gurobi Optimization, LLC

Read MPS format model from file RCPSP_9.mps
Reading time = 0.02 seconds
RCPSP_9: 5329 rows, 2080 columns, 16083 nonzeros

CPU model: Intel(R) Xeon(R) Gold 6130 CPU @ 2.10GHz, instruction set [SSE2|AVX|AVX2|AVX512]
Thread count: 32 physical cores, 32 logical processors, using up to 32 threads

Optimize a model with 5329 rows, 2080 columns and 16083 nonzeros
Model fingerprint: 0xc3060f7c
Variable types: 32 continuous, 2048 integer (2048 binary)
Coefficient statistics:
  Matrix range     [1e+00, 2e+02]
  Objective range  [1e+00, 1e+00]
  Bounds range     [1e+00, 1e+00]
  RHS range        [1e+00, 2e+02]
Presolve removed 2747 rows and 1022 columns
Presolve time: 0.18s
Presolved: 2582 rows, 1058 columns, 7985 nonzeros
Variable types: 31 continuous, 1027 integer (1027 binary)

Root relaxation: objective 4.600000e+01, 354 iterations, 0.00 seconds (0.00 work units)

    Nodes    |    Current Node    |     Objective Bounds      |     Work
 Expl Unexpl |  Obj  Depth IntInf | Incumbent    BestBd   Gap | It/Node Time

     0     0   46.00000    0    2          -   46.00000      -     -    0s
H    0     0                      57.0000000   46.00000  19.3%     -    0s
H    0     0                      50.0000000   46.00000  8.00%     -    0s
     0     0   46.00000    0   66   50.00000   46.00000  8.00%     -    0s
     0     0   46.00000    0   66   50.00000   46.00000  8.00%     -    0s
     0     0   46.00000    0   70   50.00000   46.00000  8.00%     -    0s
     0     0   47.00000    0    2   50.00000   47.00000  6.00%     -    7s
     0     0   47.00000    0   66   50.00000   47.00000  6.00%     -    8s
     0     0   48.00000    0   69   50.00000   48.00000  4.00%     -    8s
H    0     0                      48.0000000   48.00000  0.00%     -   10s
     0     0   48.00000    0    4   48.00000   48.00000  0.00%     -   10s

Cutting planes:
  Learned: 3
  Gomory: 44
  Cover: 33
  Implied bound: 17
  Clique: 65
  MIR: 120
  StrongCG: 3
  GUB cover: 2
  RLT: 4
  Relax-and-lift: 25

Explored 1 nodes (2235 simplex iterations) in 11.10 seconds (0.38 work units)
Thread count was 32 (of 32 available processors)

Solution count 3: 48 50 57 

Optimal solution found (tolerance 1.00e-04)
Best objective 4.800000000000e+01, best bound 4.800000000000e+01, gap 0.0000%

Wrote result file 'RCPSP_9.sol'

